\ENCODING=ISO-8859-1
\Problem name: ilog.cplex

Minimize
 obj1: 104491 x1 + 99389 x2 + 104556 x3 + 91501 x4 + 100669 x5 + 98277 x6
       + 90564 x7 + 93966 x8 + 97766 x9 + 108465 x10 + 105169 x11 + 109344 x12
       + 100202 x13 + 95501 x14 + 108594 x15 + 100440 x16 + 94465 x17
       + 100877 x18 + 109728 x19 + 107317 x20 + 98470 x21 + 94622 x22
       + 95185 x23 + 102686 x24 + 97972 x25 + 108043 x26 + 97810 x27
       + 107485 x28 + 106861 x29 + 102986 x30 + 96882 x31 + 105073 x32
       + 102889 x33 + 108262 x34 + 107239 x35 + 109525 x36 + 90687 x37
       + 98714 x38 + 95244 x39 + 101174 x40 + 109909 x41 + 107904 x42
       + 95744 x43 + 100862 x44 + 97905 x45 + 91509 x46 + 96092 x47 + 93282 x48
       + 93547 x49 + 95271 x50 + 108658 x51 + 93555 x52 + 97616 x53
       + 105920 x54 + 103457 x55 + 92100 x56 + 95958 x57 + 92334 x58
       + 105068 x59 + 105844 x60 + 95311 x61 + 104790 x62 + 103527 x63
       + 96133 x64 + 90408 x65 + 99913 x66 + 101177 x67 + 104725 x68
       + 94243 x69 + 99073 x70 + 94344 x71 + 97287 x72 + 96723 x73 + 92179 x74
       + 97538 x75 + 105637 x76 + 91796 x77 + 90000 x78 + 100387 x79
       + 104965 x80 + 101883 x81 + 99631 x82 + 99937 x83 + 90409 x84
       + 93630 x85 + 91166 x86 + 93866 x87 + 101144 x88 + 104799 x89
       + 102715 x90 + 93848 x91 + 99525 x92 + 108535 x93 + 95630 x94
       + 102476 x95 + 107841 x96 + 108301 x97 + 102106 x98 + 92068 x99
       + 95902 x100 + 98929 x101 + 101703 x102 + 97746 x103 + 104354 x104
       + 107117 x105 + 95721 x106 + 106827 x107 + 94925 x108 + 105773 x109
       + 106525 x110 + 97336 x111 + 102892 x112 + 98053 x113 + 96679 x114
       + 99078 x115 + 101855 x116 + 91120 x117 + 102952 x118 + 99977 x119
       + 102421 x120 + 90906 x121 + 101621 x122 + 90632 x123 + 96314 x124
       + 90712 x125 + 99596 x126 + 105683 x127 + 98853 x128 + 94508 x129
       + 96255 x130 + 90265 x131 + 99988 x132 + 107062 x133 + 94154 x134
       + 106452 x135 + 95200 x136 + 109928 x137 + 90714 x138 + 106754 x139
       + 99315 x140 + 104854 x141 + 97539 x142 + 99602 x143 + 108651 x144
       + 104284 x145 + 109189 x146 + 95182 x147 + 109875 x148 + 102426 x149
       + 99042 x150 + 96280 x151 + 95927 x152 + 97047 x153 + 98767 x154
       + 95134 x155 + 105456 x156 + 92577 x157 + 109665 x158 + 105132 x159
       + 99560 x160 + 99251 x161 + 100510 x162 + 109463 x163 + 100251 x164
       + 99558 x165 + 98772 x166 + 97439 x167 + 95842 x168 + 105117 x169
       + 98350 x170 + 96630 x171 + 95404 x172 + 90057 x173 + 109436 x174
       + 90391 x175 + 90024 x176 + 100883 x177 + 107357 x178 + 107327 x179
       + 93479 x180 + 96264 x181 + 100895 x182 + 90646 x183 + 94661 x184
       + 109384 x185 + 90623 x186 + 97414 x187 + 99371 x188 + 95388 x189
       + 93434 x190 + 100401 x191 + 90137 x192 + 106927 x193 + 90709 x194
       + 108502 x195 + 109199 x196 + 91923 x197 + 94462 x198 + 105642 x199
       + 92102 x200 + 107094 x201 + 91690 x202 + 108435 x203 + 101651 x204
       + 109034 x205 + 103988 x206 + 92782 x207 + 98661 x208 + 95578 x209
       + 106466 x210 + 107576 x211 + 95851 x212 + 98113 x213 + 107627 x214
       + 93420 x215 + 102796 x216 + 90246 x217 + 93051 x218 + 105365 x219
       + 93060 x220 + 92628 x221 + 98880 x222 + 106878 x223 + 91091 x224
       + 94440 x225 + 95572 x226 + 99718 x227 + 93238 x228 + 99109 x229
       + 94194 x230 + 99249 x231 + 106248 x232 + 94639 x233 + 104883 x234
       + 97844 x235 + 96806 x236 + 107391 x237 + 105094 x238 + 107817 x239
       + 96444 x240 + 102250 x241 + 93866 x242 + 99705 x243 + 97611 x244
       + 101806 x245 + 97568 x246 + 91748 x247 + 108711 x248 + 92507 x249
       + 205679 x250 + 18862 x251 + 20059 x252 + 20577 x253 + 20170 x254
       + 19441 x255 + 21963 x256 + 19196 x257 + 19525 x258 + 19969 x259
       + 19291 x260 + 20497 x261 + 18524 x262 + 21937 x263 + 19704 x264
       + 21113 x265 + 20995 x266 + 18699 x267 + 18237 x268 + 20414 x269
       + 20323 x270 + 19595 x271 + 21621 x272 + 19567 x273 + 18277 x274
       + 18169 x275 + 20432 x276 + 18060 x277 + 19959 x278 + 18571 x279
       + 20317 x280 + 20611 x281 + 20233 x282 + 20470 x283 + 19583 x284
       + 19352 x285 + 21165 x286 + 21527 x287 + 21767 x288 + 18515 x289
       + 19568 x290 + 19444 x291 + 18616 x292 + 21593 x293 + 18697 x294
       + 19074 x295 + 18972 x296 + 20015 x297 + 20450 x298 + 21831 x299
       + 24453 x300
Subject To
 c1:   x14 + x20 - x27 + x33  = 0
 c2:   x64 + x70 - x77 + x83  = 0
 c3:   x114 + x120 - x127 + x133  = 0
 c4:   x164 + x170 - x177 + x183  = 0
 c5:   x214 + x220 - x227 + x233  = 0
 c6:   - x5 + x7 - x10 + x12 - x16 + x17 - x22 - x23 - x25 - x26 + x44  = 0
 c7:   - x55 + x57 - x60 + x62 - x66 + x67 - x72 - x73 - x75 - x76 + x94  = -1
 c8:   - x105 + x107 - x110 + x112 - x116 + x117 - x122 - x123 - x125 - x126
       + x144  = 0
 c9:   - x155 + x157 - x160 + x162 - x166 + x167 - x172 - x173 - x175 - x176
       + x194  = 0
 c10:  - x205 + x207 - x210 + x212 - x216 + x217 - x222 - x223 - x225 - x226
       + x244  = -1
 c11:  - x2 - x15 + x16 - x21 - x32 - x45 + x49  = 0
 c12:  - x52 - x65 + x66 - x71 - x82 - x95 + x99  = 0
 c13:  - x102 - x115 + x116 - x121 - x132 - x145 + x149  = 0
 c14:  - x152 - x165 + x166 - x171 - x182 - x195 + x199  = 0
 c15:  - x202 - x215 + x216 - x221 - x232 - x245 + x249  = 0
 c16:  x9 + x15 - x19 + x22 - x24 + x30 + x37 - x38 + x41  = 0
 c17:  x59 + x65 - x69 + x72 - x74 + x80 + x87 - x88 + x91  = 0
 c18:  x109 + x115 - x119 + x122 - x124 + x130 + x137 - x138 + x141  = 0
 c19:  x159 + x165 - x169 + x172 - x174 + x180 + x187 - x188 + x191  = 0
 c20:  x209 + x215 - x219 + x222 - x224 + x230 + x237 - x238 + x241  = 0
 c21:  x5 - x20 + x29 + x40 - x41 + x46 + x47  = 0
 c22:  x55 - x70 + x79 + x90 - x91 + x96 + x97  = 0
 c23:  x105 - x120 + x129 + x140 - x141 + x146 + x147  = 0
 c24:  x155 - x170 + x179 + x190 - x191 + x196 + x197  = 0
 c25:  x205 - x220 + x229 + x240 - x241 + x246 + x247  = 0
 c26:  x2 + x8 - x18 + x24 + x26 - x28 - x31 + x42 + x43 + x50  = 0
 c27:  x52 + x58 - x68 + x74 + x76 - x78 - x81 + x92 + x93 + x100  = 0
 c28:  x102 + x108 - x118 + x124 + x126 - x128 - x131 + x142 + x143 + x150  = 0
 c29:  x152 + x158 - x168 + x174 + x176 - x178 - x181 + x192 + x193 + x200  = 1
 c30:  x202 + x208 - x218 + x224 + x226 - x228 - x231 + x242 + x243 + x250  = 0
 c31:  - x4 + x13 + x36  = -1
 c32:  - x54 + x63 + x86  = 0
 c33:  - x104 + x113 + x136  = 0
 c34:  - x154 + x163 + x186  = 0
 c35:  - x204 + x213 + x236  = 1
 c36:  - x7 + x19 - x33 + x39 - x40 - x43  = 0
 c37:  - x57 + x69 - x83 + x89 - x90 - x93  = 0
 c38:  - x107 + x119 - x133 + x139 - x140 - x143  = 0
 c39:  - x157 + x169 - x183 + x189 - x190 - x193  = 0
 c40:  - x207 + x219 - x233 + x239 - x240 - x243  = 0
 c41:  - x8 + x11 + x31 - x34 - x39 - x47  = 0
 c42:  - x58 + x61 + x81 - x84 - x89 - x97  = 0
 c43:  - x108 + x111 + x131 - x134 - x139 - x147  = 0
 c44:  - x158 + x161 + x181 - x184 - x189 - x197  = 0
 c45:  - x208 + x211 + x231 - x234 - x239 - x247  = 0
 c46:  x1 - x29 - x37 + x38 + x45  = 1
 c47:  x51 - x79 - x87 + x88 + x95  = 0
 c48:  x101 - x129 - x137 + x138 + x145  = 1
 c49:  x151 - x179 - x187 + x188 + x195  = 0
 c50:  x201 - x229 - x237 + x238 + x245  = 0
 c51:  x6 + x21 + x23 - x30 - x42 - x46 + x48 - x49  = 0
 c52:  x56 + x71 + x73 - x80 - x92 - x96 + x98 - x99  = 0
 c53:  x106 + x121 + x123 - x130 - x142 - x146 + x148 - x149  = 0
 c54:  x156 + x171 + x173 - x180 - x192 - x196 + x198 - x199  = 0
 c55:  x206 + x221 + x223 - x230 - x242 - x246 + x248 - x249  = 0
 c56:  - x9 + x10 - x14 + x27 + x28 + x34 - x35 - x44 - x48  = 0
 c57:  - x59 + x60 - x64 + x77 + x78 + x84 - x85 - x94 - x98  = 0
 c58:  - x109 + x110 - x114 + x127 + x128 + x134 - x135 - x144 - x148  = 0
 c59:  - x159 + x160 - x164 + x177 + x178 + x184 - x185 - x194 - x198  = 0
 c60:  - x209 + x210 - x214 + x227 + x228 + x234 - x235 - x244 - x248  = 0
 c61:  - x1 - x3 - x6 + x25 + x32 - x36  = 0
 c62:  - x51 - x53 - x56 + x75 + x82 - x86  = 0
 c63:  - x101 - x103 - x106 + x125 + x132 - x136  = 0
 c64:  - x151 - x153 - x156 + x175 + x182 - x186  = 0
 c65:  - x201 - x203 - x206 + x225 + x232 - x236  = 0
 c66:  x4 - x17 + x35 - x50  = 0
 c67:  x54 - x67 + x85 - x100  = 0
 c68:  x104 - x117 + x135 - x150  = 0
 c69:  x154 - x167 + x185 - x200  = 0
 c70:  x204 - x217 + x235 - x250  = 0
 c71:  x3 - x11 - x12 - x13 + x18  = 0
 c72:  x53 - x61 - x62 - x63 + x68  = 1
 c73:  x103 - x111 - x112 - x113 + x118  = -1
 c74:  x153 - x161 - x162 - x163 + x168  = -1
 c75:  x203 - x211 - x212 - x213 + x218  = 0
 c76:  4 x1 + 4 x51 + 4 x101 + 4 x151 + 4 x201 - 10 x251 <= 0
 c77:  4 x2 + 4 x52 + 4 x102 + 4 x152 + 4 x202 - 9 x252 <= 0
 c78:  4 x3 + 4 x53 + 4 x103 + 4 x153 + 4 x203 - 9 x253 <= 0
 c79:  4 x4 + 4 x54 + 4 x104 + 4 x154 + 4 x204 - 10 x254 <= 0
 c80:  4 x5 + 4 x55 + 4 x105 + 4 x155 + 4 x205 - 10 x255 <= 0
 c81:  4 x6 + 4 x56 + 4 x106 + 4 x156 + 4 x206 - 9 x256 <= 0
 c82:  4 x7 + 4 x57 + 4 x107 + 4 x157 + 4 x207 - 11 x257 <= 0
 c83:  4 x8 + 4 x58 + 4 x108 + 4 x158 + 4 x208 - 10 x258 <= 0
 c84:  4 x9 + 4 x59 + 4 x109 + 4 x159 + 4 x209 - 9 x259 <= 0
 c85:  4 x10 + 4 x60 + 4 x110 + 4 x160 + 4 x210 - 10 x260 <= 0
 c86:  4 x11 + 4 x61 + 4 x111 + 4 x161 + 4 x211 - 10 x261 <= 0
 c87:  4 x12 + 4 x62 + 4 x112 + 4 x162 + 4 x212 - 10 x262 <= 0
 c88:  4 x13 + 4 x63 + 4 x113 + 4 x163 + 4 x213 - 10 x263 <= 0
 c89:  4 x14 + 4 x64 + 4 x114 + 4 x164 + 4 x214 - 10 x264 <= 0
 c90:  4 x15 + 4 x65 + 4 x115 + 4 x165 + 4 x215 - 11 x265 <= 0
 c91:  4 x16 + 4 x66 + 4 x116 + 4 x166 + 4 x216 - 10 x266 <= 0
 c92:  4 x17 + 4 x67 + 4 x117 + 4 x167 + 4 x217 - 9 x267 <= 0
 c93:  4 x18 + 4 x68 + 4 x118 + 4 x168 + 4 x218 - 10 x268 <= 0
 c94:  4 x19 + 4 x69 + 4 x119 + 4 x169 + 4 x219 - 9 x269 <= 0
 c95:  4 x20 + 4 x70 + 4 x120 + 4 x170 + 4 x220 - 11 x270 <= 0
 c96:  4 x21 + 4 x71 + 4 x121 + 4 x171 + 4 x221 - 10 x271 <= 0
 c97:  4 x22 + 4 x72 + 4 x122 + 4 x172 + 4 x222 - 10 x272 <= 0
 c98:  4 x23 + 4 x73 + 4 x123 + 4 x173 + 4 x223 - 10 x273 <= 0
 c99:  4 x24 + 4 x74 + 4 x124 + 4 x174 + 4 x224 - 10 x274 <= 0
 c100: 4 x25 + 4 x75 + 4 x125 + 4 x175 + 4 x225 - 10 x275 <= 0
 c101: 4 x26 + 4 x76 + 4 x126 + 4 x176 + 4 x226 - 10 x276 <= 0
 c102: 4 x27 + 4 x77 + 4 x127 + 4 x177 + 4 x227 - 10 x277 <= 0
 c103: 4 x28 + 4 x78 + 4 x128 + 4 x178 + 4 x228 - 9 x278 <= 0
 c104: 4 x29 + 4 x79 + 4 x129 + 4 x179 + 4 x229 - 9 x279 <= 0
 c105: 4 x30 + 4 x80 + 4 x130 + 4 x180 + 4 x230 - 10 x280 <= 0
 c106: 4 x31 + 4 x81 + 4 x131 + 4 x181 + 4 x231 - 10 x281 <= 0
 c107: 4 x32 + 4 x82 + 4 x132 + 4 x182 + 4 x232 - 10 x282 <= 0
 c108: 4 x33 + 4 x83 + 4 x133 + 4 x183 + 4 x233 - 10 x283 <= 0
 c109: 4 x34 + 4 x84 + 4 x134 + 4 x184 + 4 x234 - 10 x284 <= 0
 c110: 4 x35 + 4 x85 + 4 x135 + 4 x185 + 4 x235 - 10 x285 <= 0
 c111: 4 x36 + 4 x86 + 4 x136 + 4 x186 + 4 x236 - 11 x286 <= 0
 c112: 4 x37 + 4 x87 + 4 x137 + 4 x187 + 4 x237 - 10 x287 <= 0
 c113: 4 x38 + 4 x88 + 4 x138 + 4 x188 + 4 x238 - 9 x288 <= 0
 c114: 4 x39 + 4 x89 + 4 x139 + 4 x189 + 4 x239 - 9 x289 <= 0
 c115: 4 x40 + 4 x90 + 4 x140 + 4 x190 + 4 x240 - 9 x290 <= 0
 c116: 4 x41 + 4 x91 + 4 x141 + 4 x191 + 4 x241 - 10 x291 <= 0
 c117: 4 x42 + 4 x92 + 4 x142 + 4 x192 + 4 x242 - 10 x292 <= 0
 c118: 4 x43 + 4 x93 + 4 x143 + 4 x193 + 4 x243 - 10 x293 <= 0
 c119: 4 x44 + 4 x94 + 4 x144 + 4 x194 + 4 x244 - 10 x294 <= 0
 c120: 4 x45 + 4 x95 + 4 x145 + 4 x195 + 4 x245 - 9 x295 <= 0
 c121: 4 x46 + 4 x96 + 4 x146 + 4 x196 + 4 x246 - 10 x296 <= 0
 c122: 4 x47 + 4 x97 + 4 x147 + 4 x197 + 4 x247 - 11 x297 <= 0
 c123: 4 x48 + 4 x98 + 4 x148 + 4 x198 + 4 x248 - 11 x298 <= 0
 c124: 4 x49 + 4 x99 + 4 x149 + 4 x199 + 4 x249 - 10 x299 <= 0
 c125: 4 x50 + 4 x100 + 4 x150 + 4 x200 + 4 x250 - 16 x300 <= 0
Bounds
 0 <= x1 <= 1
 0 <= x2 <= 1
 0 <= x3 <= 1
 0 <= x4 <= 1
 0 <= x5 <= 1
 0 <= x6 <= 1
 0 <= x7 <= 1
 0 <= x8 <= 1
 0 <= x9 <= 1
 0 <= x10 <= 1
 0 <= x11 <= 1
 0 <= x12 <= 1
 0 <= x13 <= 1
 0 <= x14 <= 1
 0 <= x15 <= 1
 0 <= x16 <= 1
 0 <= x17 <= 1
 0 <= x18 <= 1
 0 <= x19 <= 1
 0 <= x20 <= 1
 0 <= x21 <= 1
 0 <= x22 <= 1
 0 <= x23 <= 1
 0 <= x24 <= 1
 0 <= x25 <= 1
 0 <= x26 <= 1
 0 <= x27 <= 1
 0 <= x28 <= 1
 0 <= x29 <= 1
 0 <= x30 <= 1
 0 <= x31 <= 1
 0 <= x32 <= 1
 0 <= x33 <= 1
 0 <= x34 <= 1
 0 <= x35 <= 1
 0 <= x36 <= 1
 0 <= x37 <= 1
 0 <= x38 <= 1
 0 <= x39 <= 1
 0 <= x40 <= 1
 0 <= x41 <= 1
 0 <= x42 <= 1
 0 <= x43 <= 1
 0 <= x44 <= 1
 0 <= x45 <= 1
 0 <= x46 <= 1
 0 <= x47 <= 1
 0 <= x48 <= 1
 0 <= x49 <= 1
 0 <= x50 <= 1
 0 <= x51 <= 1
 0 <= x52 <= 1
 0 <= x53 <= 1
 0 <= x54 <= 1
 0 <= x55 <= 1
 0 <= x56 <= 1
 0 <= x57 <= 1
 0 <= x58 <= 1
 0 <= x59 <= 1
 0 <= x60 <= 1
 0 <= x61 <= 1
 0 <= x62 <= 1
 0 <= x63 <= 1
 0 <= x64 <= 1
 0 <= x65 <= 1
 0 <= x66 <= 1
 0 <= x67 <= 1
 0 <= x68 <= 1
 0 <= x69 <= 1
 0 <= x70 <= 1
 0 <= x71 <= 1
 0 <= x72 <= 1
 0 <= x73 <= 1
 0 <= x74 <= 1
 0 <= x75 <= 1
 0 <= x76 <= 1
 0 <= x77 <= 1
 0 <= x78 <= 1
 0 <= x79 <= 1
 0 <= x80 <= 1
 0 <= x81 <= 1
 0 <= x82 <= 1
 0 <= x83 <= 1
 0 <= x84 <= 1
 0 <= x85 <= 1
 0 <= x86 <= 1
 0 <= x87 <= 1
 0 <= x88 <= 1
 0 <= x89 <= 1
 0 <= x90 <= 1
 0 <= x91 <= 1
 0 <= x92 <= 1
 0 <= x93 <= 1
 0 <= x94 <= 1
 0 <= x95 <= 1
 0 <= x96 <= 1
 0 <= x97 <= 1
 0 <= x98 <= 1
 0 <= x99 <= 1
 0 <= x100 <= 1
 0 <= x101 <= 1
 0 <= x102 <= 1
 0 <= x103 <= 1
 0 <= x104 <= 1
 0 <= x105 <= 1
 0 <= x106 <= 1
 0 <= x107 <= 1
 0 <= x108 <= 1
 0 <= x109 <= 1
 0 <= x110 <= 1
 0 <= x111 <= 1
 0 <= x112 <= 1
 0 <= x113 <= 1
 0 <= x114 <= 1
 0 <= x115 <= 1
 0 <= x116 <= 1
 0 <= x117 <= 1
 0 <= x118 <= 1
 0 <= x119 <= 1
 0 <= x120 <= 1
 0 <= x121 <= 1
 0 <= x122 <= 1
 0 <= x123 <= 1
 0 <= x124 <= 1
 0 <= x125 <= 1
 0 <= x126 <= 1
 0 <= x127 <= 1
 0 <= x128 <= 1
 0 <= x129 <= 1
 0 <= x130 <= 1
 0 <= x131 <= 1
 0 <= x132 <= 1
 0 <= x133 <= 1
 0 <= x134 <= 1
 0 <= x135 <= 1
 0 <= x136 <= 1
 0 <= x137 <= 1
 0 <= x138 <= 1
 0 <= x139 <= 1
 0 <= x140 <= 1
 0 <= x141 <= 1
 0 <= x142 <= 1
 0 <= x143 <= 1
 0 <= x144 <= 1
 0 <= x145 <= 1
 0 <= x146 <= 1
 0 <= x147 <= 1
 0 <= x148 <= 1
 0 <= x149 <= 1
 0 <= x150 <= 1
 0 <= x151 <= 1
 0 <= x152 <= 1
 0 <= x153 <= 1
 0 <= x154 <= 1
 0 <= x155 <= 1
 0 <= x156 <= 1
 0 <= x157 <= 1
 0 <= x158 <= 1
 0 <= x159 <= 1
 0 <= x160 <= 1
 0 <= x161 <= 1
 0 <= x162 <= 1
 0 <= x163 <= 1
 0 <= x164 <= 1
 0 <= x165 <= 1
 0 <= x166 <= 1
 0 <= x167 <= 1
 0 <= x168 <= 1
 0 <= x169 <= 1
 0 <= x170 <= 1
 0 <= x171 <= 1
 0 <= x172 <= 1
 0 <= x173 <= 1
 0 <= x174 <= 1
 0 <= x175 <= 1
 0 <= x176 <= 1
 0 <= x177 <= 1
 0 <= x178 <= 1
 0 <= x179 <= 1
 0 <= x180 <= 1
 0 <= x181 <= 1
 0 <= x182 <= 1
 0 <= x183 <= 1
 0 <= x184 <= 1
 0 <= x185 <= 1
 0 <= x186 <= 1
 0 <= x187 <= 1
 0 <= x188 <= 1
 0 <= x189 <= 1
 0 <= x190 <= 1
 0 <= x191 <= 1
 0 <= x192 <= 1
 0 <= x193 <= 1
 0 <= x194 <= 1
 0 <= x195 <= 1
 0 <= x196 <= 1
 0 <= x197 <= 1
 0 <= x198 <= 1
 0 <= x199 <= 1
 0 <= x200 <= 1
 0 <= x201 <= 1
 0 <= x202 <= 1
 0 <= x203 <= 1
 0 <= x204 <= 1
 0 <= x205 <= 1
 0 <= x206 <= 1
 0 <= x207 <= 1
 0 <= x208 <= 1
 0 <= x209 <= 1
 0 <= x210 <= 1
 0 <= x211 <= 1
 0 <= x212 <= 1
 0 <= x213 <= 1
 0 <= x214 <= 1
 0 <= x215 <= 1
 0 <= x216 <= 1
 0 <= x217 <= 1
 0 <= x218 <= 1
 0 <= x219 <= 1
 0 <= x220 <= 1
 0 <= x221 <= 1
 0 <= x222 <= 1
 0 <= x223 <= 1
 0 <= x224 <= 1
 0 <= x225 <= 1
 0 <= x226 <= 1
 0 <= x227 <= 1
 0 <= x228 <= 1
 0 <= x229 <= 1
 0 <= x230 <= 1
 0 <= x231 <= 1
 0 <= x232 <= 1
 0 <= x233 <= 1
 0 <= x234 <= 1
 0 <= x235 <= 1
 0 <= x236 <= 1
 0 <= x237 <= 1
 0 <= x238 <= 1
 0 <= x239 <= 1
 0 <= x240 <= 1
 0 <= x241 <= 1
 0 <= x242 <= 1
 0 <= x243 <= 1
 0 <= x244 <= 1
 0 <= x245 <= 1
 0 <= x246 <= 1
 0 <= x247 <= 1
 0 <= x248 <= 1
 0 <= x249 <= 1
 0 <= x250 <= 1
 0 <= x251 <= 1
 0 <= x252 <= 1
 0 <= x253 <= 1
 0 <= x254 <= 1
 0 <= x255 <= 1
 0 <= x256 <= 1
 0 <= x257 <= 1
 0 <= x258 <= 1
 0 <= x259 <= 1
 0 <= x260 <= 1
 0 <= x261 <= 1
 0 <= x262 <= 1
 0 <= x263 <= 1
 0 <= x264 <= 1
 0 <= x265 <= 1
 0 <= x266 <= 1
 0 <= x267 <= 1
 0 <= x268 <= 1
 0 <= x269 <= 1
 0 <= x270 <= 1
 0 <= x271 <= 1
 0 <= x272 <= 1
 0 <= x273 <= 1
 0 <= x274 <= 1
 0 <= x275 <= 1
 0 <= x276 <= 1
 0 <= x277 <= 1
 0 <= x278 <= 1
 0 <= x279 <= 1
 0 <= x280 <= 1
 0 <= x281 <= 1
 0 <= x282 <= 1
 0 <= x283 <= 1
 0 <= x284 <= 1
 0 <= x285 <= 1
 0 <= x286 <= 1
 0 <= x287 <= 1
 0 <= x288 <= 1
 0 <= x289 <= 1
 0 <= x290 <= 1
 0 <= x291 <= 1
 0 <= x292 <= 1
 0 <= x293 <= 1
 0 <= x294 <= 1
 0 <= x295 <= 1
 0 <= x296 <= 1
 0 <= x297 <= 1
 0 <= x298 <= 1
 0 <= x299 <= 1
 0 <= x300 <= 1
Binaries
 x251  x252  x253  x254  x255  x256  x257  x258  x259  x260  x261  x262  x263 
 x264  x265  x266  x267  x268  x269  x270  x271  x272  x273  x274  x275  x276 
 x277  x278  x279  x280  x281  x282  x283  x284  x285  x286  x287  x288  x289 
 x290  x291  x292  x293  x294  x295  x296  x297  x298  x299  x300 
End
